(set-info :status unknown)
(declare-fun %Y () (_ BitVec 11))
(declare-fun C2 () (_ BitVec 11))
(declare-fun C1 () (_ BitVec 28))
(declare-fun %X () (_ BitVec 28))
(assert
 (let ((?x2217 (ite (and (distinct ((_ extract 3 2) C1) (_ bv0 2)) true) (ite (and (distinct ((_ extract 3 3) C1) (_ bv0 1)) true) (_ bv3 11) (_ bv2 11)) (ite (and (distinct ((_ extract 1 1) C1) (_ bv0 1)) true) (_ bv1 11) (_ bv0 11)))))
 (let ((?x2670 (ite (and (distinct ((_ extract 6 6) C1) (_ bv0 1)) true) (_ bv6 11) (ite (and (distinct ((_ extract 5 5) C1) (_ bv0 1)) true) (_ bv5 11) (_ bv4 11)))))
 (let ((?x3187 (ite (and (distinct ((_ extract 10 9) C1) (_ bv0 2)) true) (ite (and (distinct ((_ extract 10 10) C1) (_ bv0 1)) true) (_ bv10 11) (_ bv9 11)) (ite (and (distinct ((_ extract 8 8) C1) (_ bv0 1)) true) (_ bv8 11) (_ bv7 11)))))
 (let ((?x2738 (ite (and (distinct ((_ extract 13 13) C1) (_ bv0 1)) true) (_ bv13 11) (ite (and (distinct ((_ extract 12 12) C1) (_ bv0 1)) true) (_ bv12 11) (_ bv11 11)))))
 (let ((?x4061 (ite (and (distinct ((_ extract 13 7) C1) (_ bv0 7)) true) (ite (and (distinct ((_ extract 13 11) C1) (_ bv0 3)) true) ?x2738 ?x3187) (ite (and (distinct ((_ extract 6 4) C1) (_ bv0 3)) true) ?x2670 ?x2217))))
 (let ((?x5035 (ite (and (distinct ((_ extract 17 16) C1) (_ bv0 2)) true) (ite (and (distinct ((_ extract 17 17) C1) (_ bv0 1)) true) (_ bv17 11) (_ bv16 11)) (ite (and (distinct ((_ extract 15 15) C1) (_ bv0 1)) true) (_ bv15 11) (_ bv14 11)))))
 (let ((?x1557 (ite (and (distinct ((_ extract 20 20) C1) (_ bv0 1)) true) (_ bv20 11) (ite (and (distinct ((_ extract 19 19) C1) (_ bv0 1)) true) (_ bv19 11) (_ bv18 11)))))
 (let ((?x3406 (ite (and (distinct ((_ extract 24 23) C1) (_ bv0 2)) true) (ite (and (distinct ((_ extract 24 24) C1) (_ bv0 1)) true) (_ bv24 11) (_ bv23 11)) (ite (and (distinct ((_ extract 22 22) C1) (_ bv0 1)) true) (_ bv22 11) (_ bv21 11)))))
 (let ((?x3159 (ite (and (distinct ((_ extract 27 27) C1) (_ bv0 1)) true) (_ bv27 11) (ite (and (distinct ((_ extract 26 26) C1) (_ bv0 1)) true) (_ bv26 11) (_ bv25 11)))))
 (let ((?x2029 (ite (and (distinct ((_ extract 27 21) C1) (_ bv0 7)) true) (ite (and (distinct ((_ extract 27 25) C1) (_ bv0 3)) true) ?x3159 ?x3406) (ite (and (distinct ((_ extract 20 18) C1) (_ bv0 3)) true) ?x1557 ?x5035))))
 (let ((?x5378 (ite (and (distinct ((_ extract 2 2) C2) (_ bv0 1)) true) (_ bv2 11) (ite (and (distinct ((_ extract 1 1) C2) (_ bv0 1)) true) (_ bv1 11) (_ bv0 11)))))
 (let ((?x5945 (ite (and (distinct ((_ extract 5 5) C2) (_ bv0 1)) true) (_ bv5 11) (ite (and (distinct ((_ extract 4 4) C2) (_ bv0 1)) true) (_ bv4 11) (_ bv3 11)))))
 (let ((?x3931 (ite (and (distinct ((_ extract 8 8) C2) (_ bv0 1)) true) (_ bv8 11) (ite (and (distinct ((_ extract 7 7) C2) (_ bv0 1)) true) (_ bv7 11) (_ bv6 11)))))
 (let ((?x1726 (ite (and (distinct ((_ extract 10 9) C2) (_ bv0 2)) true) (ite (and (distinct ((_ extract 10 10) C2) (_ bv0 1)) true) (_ bv10 11) (_ bv9 11)) ?x3931)))
 (let ((?x3726 (ite (and (distinct ((_ extract 10 6) C2) (_ bv0 5)) true) ?x1726 (ite (and (distinct ((_ extract 5 3) C2) (_ bv0 3)) true) ?x5945 ?x5378))))
 (let ((?x2297 (bvsub ?x3726 (ite (and (distinct ((_ extract 27 14) C1) (_ bv0 14)) true) ?x2029 ?x4061))))
 (let ((?x5392 (bvor %Y C2)))
 (let (($x3769 (and (distinct (ite (= (ite (= (bvand %X C1) (_ bv0 28)) (_ bv1 1) (_ bv0 1)) (_ bv1 1)) ?x5392 %Y) (bvor (bvxor (bvshl ((_ extract 10 0) (bvand %X C1)) ?x2297) C2) %Y)) true)))
 (let ((?x3995 (ite (and (distinct ((_ extract 3 2) C1) (_ bv0 2)) true) (ite (and (distinct ((_ extract 3 3) C1) (_ bv0 1)) true) (_ bv3 32) (_ bv2 32)) (ite (and (distinct ((_ extract 1 1) C1) (_ bv0 1)) true) (_ bv1 32) (_ bv0 32)))))
 (let ((?x3486 (ite (and (distinct ((_ extract 6 6) C1) (_ bv0 1)) true) (_ bv6 32) (ite (and (distinct ((_ extract 5 5) C1) (_ bv0 1)) true) (_ bv5 32) (_ bv4 32)))))
 (let ((?x3292 (ite (and (distinct ((_ extract 10 9) C1) (_ bv0 2)) true) (ite (and (distinct ((_ extract 10 10) C1) (_ bv0 1)) true) (_ bv10 32) (_ bv9 32)) (ite (and (distinct ((_ extract 8 8) C1) (_ bv0 1)) true) (_ bv8 32) (_ bv7 32)))))
 (let ((?x3085 (ite (and (distinct ((_ extract 13 13) C1) (_ bv0 1)) true) (_ bv13 32) (ite (and (distinct ((_ extract 12 12) C1) (_ bv0 1)) true) (_ bv12 32) (_ bv11 32)))))
 (let ((?x3965 (ite (and (distinct ((_ extract 13 7) C1) (_ bv0 7)) true) (ite (and (distinct ((_ extract 13 11) C1) (_ bv0 3)) true) ?x3085 ?x3292) (ite (and (distinct ((_ extract 6 4) C1) (_ bv0 3)) true) ?x3486 ?x3995))))
 (let ((?x1450 (ite (and (distinct ((_ extract 17 16) C1) (_ bv0 2)) true) (ite (and (distinct ((_ extract 17 17) C1) (_ bv0 1)) true) (_ bv17 32) (_ bv16 32)) (ite (and (distinct ((_ extract 15 15) C1) (_ bv0 1)) true) (_ bv15 32) (_ bv14 32)))))
 (let ((?x5181 (ite (and (distinct ((_ extract 20 20) C1) (_ bv0 1)) true) (_ bv20 32) (ite (and (distinct ((_ extract 19 19) C1) (_ bv0 1)) true) (_ bv19 32) (_ bv18 32)))))
 (let ((?x5412 (ite (and (distinct ((_ extract 24 23) C1) (_ bv0 2)) true) (ite (and (distinct ((_ extract 24 24) C1) (_ bv0 1)) true) (_ bv24 32) (_ bv23 32)) (ite (and (distinct ((_ extract 22 22) C1) (_ bv0 1)) true) (_ bv22 32) (_ bv21 32)))))
 (let ((?x4389 (ite (and (distinct ((_ extract 27 27) C1) (_ bv0 1)) true) (_ bv27 32) (ite (and (distinct ((_ extract 26 26) C1) (_ bv0 1)) true) (_ bv26 32) (_ bv25 32)))))
 (let ((?x5508 (ite (and (distinct ((_ extract 27 21) C1) (_ bv0 7)) true) (ite (and (distinct ((_ extract 27 25) C1) (_ bv0 3)) true) ?x4389 ?x5412) (ite (and (distinct ((_ extract 20 18) C1) (_ bv0 3)) true) ?x5181 ?x1450))))
 (let ((?x4393 (ite (and (distinct ((_ extract 2 2) C2) (_ bv0 1)) true) (_ bv2 32) (ite (and (distinct ((_ extract 1 1) C2) (_ bv0 1)) true) (_ bv1 32) (_ bv0 32)))))
 (let ((?x2392 (ite (and (distinct ((_ extract 5 5) C2) (_ bv0 1)) true) (_ bv5 32) (ite (and (distinct ((_ extract 4 4) C2) (_ bv0 1)) true) (_ bv4 32) (_ bv3 32)))))
 (let ((?x5764 (ite (and (distinct ((_ extract 8 8) C2) (_ bv0 1)) true) (_ bv8 32) (ite (and (distinct ((_ extract 7 7) C2) (_ bv0 1)) true) (_ bv7 32) (_ bv6 32)))))
 (let ((?x6366 (ite (and (distinct ((_ extract 10 9) C2) (_ bv0 2)) true) (ite (and (distinct ((_ extract 10 10) C2) (_ bv0 1)) true) (_ bv10 32) (_ bv9 32)) ?x5764)))
 (let ((?x3524 (ite (and (distinct ((_ extract 10 6) C2) (_ bv0 5)) true) ?x6366 (ite (and (distinct ((_ extract 5 3) C2) (_ bv0 3)) true) ?x2392 ?x4393))))
 (and (and (and (distinct C1 (_ bv0 28)) true) (= (bvand C1 (bvsub C1 (_ bv1 28))) (_ bv0 28))) (and (and (distinct C2 (_ bv0 11)) true) (= (bvand C2 (bvsub C2 (_ bv1 11))) (_ bv0 11))) (bvsge ?x3524 (ite (and (distinct ((_ extract 27 14) C1) (_ bv0 14)) true) ?x5508 ?x3965)) $x3769)))))))))))))))))))))))))))))))))))
(check-sat)
